Academic license - for non-commercial use only - expires 2022-11-10
Using license file /home/benedond/Apps/gurobi/gurobi950/gurobi.lic
Using gurobi.env file
Set parameter Threads to value 1
Changed value of parameter TimeLimit to 1200.0
   Prev: inf  Min: 0.0  Max: inf  Default: inf
Gurobi Optimizer version 9.1.2 build v9.1.2rc0 (linux64)
Thread count: 2 physical cores, 4 logical processors, using up to 1 threads
Optimize a model with 2376 rows, 2215 columns and 10705 nonzeros
Model fingerprint: 0x92853b56
Variable types: 64 continuous, 2151 integer (2151 binary)
Coefficient statistics:
  Matrix range     [2e-01, 4e+02]
  Objective range  [6e-03, 3e-01]
  Bounds range     [1e+00, 1e+00]
  RHS range        [1e+00, 1e+03]
Presolve removed 214 rows and 100 columns
Presolve time: 0.04s
Presolved: 2162 rows, 2115 columns, 10132 nonzeros
Variable types: 63 continuous, 2052 integer (2052 binary)
Found heuristic solution: objective 4.0800240

Root relaxation: objective 1.874809e+00, 2709 iterations, 0.08 seconds

    Nodes    |    Current Node    |     Objective Bounds      |     Work
 Expl Unexpl |  Obj  Depth IntInf | Incumbent    BestBd   Gap | It/Node Time

     0     0    1.87481    0  151    4.08002    1.87481  54.0%     -    0s
     0     0    1.99201    0  198    4.08002    1.99201  51.2%     -    0s
H    0     0                       3.5292560    1.99201  43.6%     -    0s
H    0     0                       3.1838480    1.99201  37.4%     -    0s
     0     0    1.99646    0  176    3.18385    1.99646  37.3%     -    0s
     0     0    2.05169    0  176    3.18385    2.05169  35.6%     -    0s
H    0     0                       3.1036320    2.05169  33.9%     -    0s
     0     0    2.05592    0  162    3.10363    2.05592  33.8%     -    0s
     0     0    2.05690    0  209    3.10363    2.05690  33.7%     -    0s
     0     0    2.05696    0  184    3.10363    2.05696  33.7%     -    0s
     0     0    2.13169    0  147    3.10363    2.13169  31.3%     -    0s
     0     0    2.15042    0  134    3.10363    2.15042  30.7%     -    0s
     0     0    2.16320    0  138    3.10363    2.16320  30.3%     -    0s
     0     0    2.16437    0  159    3.10363    2.16437  30.3%     -    0s
     0     0    2.16449    0  154    3.10363    2.16449  30.3%     -    0s
     0     0    2.20446    0  167    3.10363    2.20446  29.0%     -    1s
     0     0    2.22191    0  173    3.10363    2.22191  28.4%     -    1s
     0     0    2.22402    0  166    3.10363    2.22402  28.3%     -    1s
     0     0    2.22490    0  150    3.10363    2.22490  28.3%     -    1s
     0     0    2.22525    0  164    3.10363    2.22525  28.3%     -    1s
     0     0    2.22544    0  167    3.10363    2.22544  28.3%     -    1s
     0     0    2.24543    0  145    3.10363    2.24543  27.7%     -    1s
     0     0    2.24946    0  178    3.10363    2.24946  27.5%     -    1s
     0     0    2.25238    0  155    3.10363    2.25238  27.4%     -    1s
     0     0    2.25282    0  155    3.10363    2.25282  27.4%     -    1s
     0     0    2.25292    0  154    3.10363    2.25292  27.4%     -    1s
     0     0    2.26337    0  197    3.10363    2.26337  27.1%     -    1s
H    0     0                       3.0962640    2.26337  26.9%     -    1s
     0     0    2.26429    0  167    3.09626    2.26429  26.9%     -    1s
     0     0    2.26483    0  183    3.09626    2.26483  26.9%     -    1s
     0     0    2.26556    0  175    3.09626    2.26556  26.8%     -    1s
     0     0    2.26579    0  195    3.09626    2.26579  26.8%     -    1s
     0     0    2.27807    0  180    3.09626    2.27807  26.4%     -    1s
H    0     0                       2.9264320    2.27807  22.2%     -    1s
     0     0    2.27966    0  175    2.92643    2.27966  22.1%     -    1s
     0     0    2.28035    0  182    2.92643    2.28035  22.1%     -    1s
     0     0    2.28082    0  190    2.92643    2.28082  22.1%     -    1s
     0     0    2.28092    0  193    2.92643    2.28092  22.1%     -    1s
     0     0    2.28475    0  170    2.92643    2.28475  21.9%     -    1s
     0     0    2.28662    0  190    2.92643    2.28662  21.9%     -    1s
     0     0    2.28736    0  194    2.92643    2.28736  21.8%     -    1s
     0     0    2.28759    0  193    2.92643    2.28759  21.8%     -    1s
     0     0    2.29187    0  168    2.92643    2.29187  21.7%     -    1s
     0     0    2.29308    0  175    2.92643    2.29308  21.6%     -    1s
     0     0    2.29370    0  180    2.92643    2.29370  21.6%     -    1s
     0     0    2.29388    0  174    2.92643    2.29388  21.6%     -    1s
     0     0    2.29630    0  165    2.92643    2.29630  21.5%     -    1s
     0     0    2.29752    0  208    2.92643    2.29752  21.5%     -    1s
     0     0    2.29806    0  197    2.92643    2.29806  21.5%     -    1s
     0     0    2.29822    0  199    2.92643    2.29822  21.5%     -    1s
     0     0    2.29997    0  200    2.92643    2.29997  21.4%     -    1s
     0     0    2.30092    0  209    2.92643    2.30092  21.4%     -    1s
     0     0    2.30145    0  198    2.92643    2.30145  21.4%     -    1s
     0     0    2.30152    0  204    2.92643    2.30152  21.4%     -    1s
     0     0    2.30323    0  201    2.92643    2.30323  21.3%     -    1s
     0     0    2.30369    0  193    2.92643    2.30369  21.3%     -    1s
     0     0    2.30405    0  207    2.92643    2.30405  21.3%     -    1s
     0     0    2.30426    0  203    2.92643    2.30426  21.3%     -    1s
     0     0    2.30560    0  236    2.92643    2.30560  21.2%     -    1s
     0     0    2.30560    0  221    2.92643    2.30560  21.2%     -    2s
H    0     0                       2.9088720    2.30560  20.7%     -    2s
H    0     0                       2.8918320    2.30560  20.3%     -    2s
     0     2    2.30763    0  221    2.89183    2.30763  20.2%     -    2s
H   26    26                       2.7459040    2.31248  15.8%   167    3s
H   52    42                       2.6647840    2.31248  13.2%   212    4s
H  104    85                       2.6478320    2.31325  12.6%   155    4s
   128   111    2.48100   30  105    2.64783    2.31325  12.6%   149    5s
H  182   151                       2.6472080    2.32138  12.3%   123    5s
   514   372    2.49589   44  137    2.64721    2.33549  11.8%   110   10s
   605   433    2.57952   90  199    2.64721    2.38382  9.95%  93.5   15s
H  617   417                       2.6363760    2.38664  9.47%   122   17s
   619   420    2.40687   14  161    2.63638    2.38788  9.43%   123   20s
   680   428    2.55419   23  129    2.63638    2.40483  8.78%   145   25s
H  791   401                       2.6233840    2.40928  8.16%   164   29s
   818   411     cutoff   37         2.62338    2.40928  8.16%   165   30s
H  898   362                       2.5747360    2.40928  6.43%   158   30s
H  900   336                       2.5723440    2.40928  6.34%   158   30s
H  927   282                       2.5396880    2.40928  5.13%   154   31s
  1073   290    2.45497   19  127    2.53969    2.43235  4.23%   158   35s
  1358   284    2.50544   48  103    2.53969    2.45433  3.36%   157   40s
H 1505   288                       2.5392080    2.45889  3.16%   146   40s
H 1576   283                       2.5264720    2.46031  2.62%   144   41s
H 1767   243                       2.5148640    2.47374  1.64%   136   42s
H 1807   149                       2.5013920    2.47490  1.06%   135   42s

Cutting planes:
  Gomory: 4
  Cover: 23
  Implied bound: 4
  Clique: 14
  MIR: 204
  StrongCG: 1
  Flow cover: 341
  GUB cover: 2
  Zero half: 1
  RLT: 8
  Relax-and-lift: 226

Explored 2202 nodes (275860 simplex iterations) in 44.66 seconds
Thread count was 1 (of 4 available processors)

Solution count 10: 2.50139 2.51486 2.52647 ... 2.64721

Optimal solution found (tolerance 1.00e-04)
Best objective 2.501392020309e+00, best bound 2.501392020309e+00, gap 0.0000%
